(set-logic QF_RDL)
(set-info :source | SMT-COMP'06 Organizers |)
(set-info :smt-lib-version 2.0)
(set-info :category "check")
(set-info :status sat)
(set-info :notes |This benchmark is a simple example of smt file.|)
(declare-fun ACT-Start () Real)
(declare-fun ACT-End () Real)
(declare-fun ACT2-Start () Real)
(declare-fun ACT2-End () Real)
(assert (and (<= (- ACT-End ACT-Start) 22) (>= (- ACT-End ACT-Start) 22) (>= (- ACT2-Start ACT-Start) 0) (>= (- ACT2-End ACT2-Start) 7) (<= (- ACT2-End ACT2-Start) 8) (>= (- ACT-End ACT2-End) 0)))
(check-sat)
(exit)
